60
7
5
1
36 30
100 45
130 50
40 130
70 110
135 100
36 30
100 45
130 50
40 130
70 110
135 100
23 131
108 40
46 128
71 109
33 127
114 77
149 40
27 44
8 113
131 51
56 95
111 49
66 25
39 152
32 122
105 19
45 130
102 154
44 127
45 27
97 40
121 53
149 46
87 47
57 155
114 95
122 45
120 93
48 85
28 29
11 86
114 95
68 152
57 129
107 152
138 55
46 125
87 45
54 97
145 100
156 98
1 151
107 39
117 100
133 138
1 147
47 113
51 26
20 26
23 129
135 54
85 81
29 90
56 61
42 137
118 128
76 51
149 75
107 157
114 147
